File: D:\ML4VRP2024\Instances\CVRP\json\X-n115-k10.json exists.
Route #1: 46 64 74 7 1 90 
Route #2: 104 41 91 2 23 65 45 96 22 51 25 16 19 
Route #3: 15 32 89 17 66 106 3 73 87 86 60 48 
Route #4: 59 42 95 107 35 99 4 
Route #5: 5 108 6 
Route #6: 111 110 21 82 88 112 105 27 44 30 75 83 84 8 14 68 43 67 40 85 
Route #7: 50 52 29 53 78 28 100 57 92 62 54 9 114 94 20 101 
Route #8: 10 93 18 109 47 79 49 
Route #9: 11 
Route #10: 113 12 
Route #11: 13 70 36 56 31 81 33 61 103 69 102 72 26 34 63 98 24 71 37 39 76 55 80 97 38 77 58 
